\ Model firefighting_copy
\ LP format - for model browsing. Use MPS format to capture full model detail.
Maximize
 
Subject To
 R31: 1.482017316822 b_j[34] + 1.264378641877631 tv_j[34] + p_j[34]
   <= 1.482017316822
 R17094: - 25 x_ijk[1,25,1] - 25 x_ijk[1,25,2] + tv_j[25] - lv_h
   >= -24.85857864376269
 R18007: - 0.1795054935711501 x_ijk[21,30,1]
   - 0.1795054935711501 x_ijk[21,30,2] - 0.19436506316151 x_ijk[21,37,1]
   - 0.19436506316151 x_ijk[21,37,2] - 25.08895580782256 x_ijk[21,40,1]
   - 25.08895580782256 x_ijk[21,40,2] - 0.105409255338946 x_ijk[30,40,1]
   - 0.105409255338946 x_ijk[30,40,2] - 0.1 x_ijk[37,40,1]
   - 0.1 x_ijk[37,40,2] - tv_j[21] + tv_j[40] - lv_j[21]
   >= -25.08895580782256
 R18036: - 25.1689006624115 x_ijk[22,21,1]
   - 25.1689006624115 x_ijk[22,21,2] - 0.0471404520791032 x_ijk[22,30,1]
   - 0.0471404520791032 x_ijk[22,30,2] - 0.074535599249993 x_ijk[22,37,1]
   - 0.074535599249993 x_ijk[22,37,2] - 0.1795054935711501 x_ijk[30,21,1]
   - 0.1795054935711501 x_ijk[30,21,2] - 0.19436506316151 x_ijk[37,21,1]
   - 0.19436506316151 x_ijk[37,21,2] + tv_j[21] - tv_j[22] - lv_j[22]
   >= -25.1689006624115
 R18172: - 25.02739514717089 x_ijk[25,22,1]
   - 25.02739514717089 x_ijk[25,22,2] - 0.074535599249993 x_ijk[25,30,1]
   - 0.074535599249993 x_ijk[25,30,2] - 0.0942809041582063 x_ijk[25,37,1]
   - 0.0942809041582063 x_ijk[25,37,2] - 0.0471404520791032 x_ijk[30,22,1]
   - 0.0471404520791032 x_ijk[30,22,2] - 0.074535599249993 x_ijk[37,22,1]
   - 0.074535599249993 x_ijk[37,22,2] + tv_j[22] - tv_j[25] - lv_j[25]
   >= -25.02739514717089
 R18779: - 0.1201850425154663 x_ijk[30,47,1]
   - 0.1201850425154663 x_ijk[30,47,2] - 0.105409255338946 x_ijk[37,47,1]
   - 0.105409255338946 x_ijk[37,47,2] - 0.105409255338946 x_ijk[40,30,1]
   - 0.105409255338946 x_ijk[40,30,2] - 0.1 x_ijk[40,37,1]
   - 0.1 x_ijk[40,37,2] - 25.01215682327332 x_ijk[40,47,1]
   - 25.01215682327332 x_ijk[40,47,2] - tv_j[40] + tv_j[47] - lv_j[40]
   >= -25.01215682327332
 R19083: - 0.1333333333333333 x_ijk[30,34,1]
   - 0.1333333333333333 x_ijk[30,34,2] - 0.1374368541872553 x_ijk[37,34,1]
   - 0.1374368541872553 x_ijk[37,34,2] - 0.1201850425154663 x_ijk[47,30,1]
   - 0.1201850425154663 x_ijk[47,30,2] - 25.01725181167179 x_ijk[47,34,1]
   - 25.01725181167179 x_ijk[47,34,2] - 0.105409255338946 x_ijk[47,37,1]
   - 0.105409255338946 x_ijk[47,37,2] + tv_j[34] - tv_j[47] - lv_j[47]
   >= -25.01725181167179
 R22721: x_ijk[1,25,1] = 1
 R24647: x_ijk[21,30,1] = 1
 R24667: x_ijk[21,40,1] = 1
 R24727: x_ijk[22,21,1] = 1
 R24743: x_ijk[22,30,1] = 1
 R25017: x_ijk[25,22,1] = 1
 R25031: x_ijk[25,30,1] = 1
 R25493: x_ijk[30,21,1] = 1
 R25527: x_ijk[30,40,1] = 1
 R26185: x_ijk[37,34,1] = 1
 R26209: x_ijk[37,47,1] = 1
 R26479: x_ijk[40,37,1] = 1
 R26497: x_ijk[40,47,1] = 1
 R27145: x_ijk[47,34,1] = 1
 R27151: x_ijk[47,37,1] = 1
Bounds
 tv_j[21] free
 tv_j[22] free
 tv_j[25] free
 tv_j[34] free
 tv_j[40] free
 tv_j[47] free
Binaries
 x_ijk[1,25,1] x_ijk[1,25,2] x_ijk[21,30,1] x_ijk[21,30,2] x_ijk[21,37,1]
 x_ijk[21,37,2] x_ijk[21,40,1] x_ijk[21,40,2] x_ijk[22,21,1] x_ijk[22,21,2]
 x_ijk[22,30,1] x_ijk[22,30,2] x_ijk[22,37,1] x_ijk[22,37,2] x_ijk[25,22,1]
 x_ijk[25,22,2] x_ijk[25,30,1] x_ijk[25,30,2] x_ijk[25,37,1] x_ijk[25,37,2]
 x_ijk[30,21,1] x_ijk[30,21,2] x_ijk[30,22,1] x_ijk[30,22,2] x_ijk[30,34,1]
 x_ijk[30,34,2] x_ijk[30,40,1] x_ijk[30,40,2] x_ijk[30,47,1] x_ijk[30,47,2]
 x_ijk[37,21,1] x_ijk[37,21,2] x_ijk[37,22,1] x_ijk[37,22,2] x_ijk[37,34,1]
 x_ijk[37,34,2] x_ijk[37,40,1] x_ijk[37,40,2] x_ijk[37,47,1] x_ijk[37,47,2]
 x_ijk[40,30,1] x_ijk[40,30,2] x_ijk[40,37,1] x_ijk[40,37,2] x_ijk[40,47,1]
 x_ijk[40,47,2] x_ijk[47,30,1] x_ijk[47,30,2] x_ijk[47,34,1] x_ijk[47,34,2]
 x_ijk[47,37,1] x_ijk[47,37,2] b_j[34]
End
